7315
1 1 1 1 0 0 0 0 1 0 1 1 1 0 1 1 0 0 1 1 
12 10 11 14 15 18 1 3 2 1 11 18 19 10 19 15 0 2 8 14 10 11 11 8 12 8 11 12 2 3 1 19 19 8 14 10 10 0 0 1 1 3 3 12 11 14 8 19 15 15 1 2 1 3 2 14 2 14 14 14 11 11 3 3 11 3 0 15 19 15 10 18 19 19 19 18 18 18 19 19 
